ncustomers = 5;
ndepots = 5;
vehicle_capacity = 20;
capacities = [50,15,15,15,15];
demands = [18,7,15,7,9];
opening_cost = [15,3,5,1,10];
route_cost = 8;
% the distance matrix is indexed as follows:
% * the first ncustomers elements are the customers
% * the elements between ncustomers + 1 and ncustomers + ndepots are depots
distances = array2d(1..10, 1..10, [
0,9,2,8,10,8,10,20,12,1,
9,0,2,5,14,9,10,15,3,6,
2,2,0,2,8,2,9,13,9,3,
8,1,2,0,9,8,8,8,1,2,
10,11,8,9,0,15,9,4,0,0,
4,9,2,8,15,0,0,0,0,0,
10,10,5,8,9,0,0,0,0,0,
20,15,11,8,2,0,0,0,0,0,
1,5,11,3,2,0,0,0,0,0,
9,8,12,8,2,0,0,0,0,0]);
